(set-logic ALL)
(declare-fun i1 () Int)
(declare-fun it520 () Int)
(declare-fun it521 () Int)
(declare-fun i2 () Int)
(declare-fun it522 () Int)
(declare-fun i3 () Int)
(declare-fun it523 () Int)
(declare-fun i4 () Int)
(declare-fun it524 () Int)
(declare-fun i5 () Int)
(declare-fun it525 () Int)
(declare-fun i6 () Int)
(declare-fun it526 () Int)
(declare-fun i7 () Int)
(declare-fun it783 () Int)
(declare-fun it784 () Int)
(declare-fun it785 () Int)
(declare-fun it786 () Int)
(declare-fun it787 () Int)
(declare-fun it788 () Int)
(declare-fun it789 () Int)
(declare-fun it795 () Int)
(declare-fun it796 () Int)
(declare-fun it797 () Int)
(declare-fun it798 () Int)
(declare-fun it799 () Int)
(declare-fun it800 () Int)
(declare-fun it801 () Int)
(declare-fun it452 () Int)
(assert (= (+ i1 (- 1)) 0))
(assert (= (+ it520 (- 2)) 0))
(assert (= (+ (* i2 (- 1)) it521 (- 1)) 0))
(assert (= (+ (* i3 (- 1)) it522) 0))
(assert (= (+ (* i4 (- 1)) it523) 0))
(assert (= (+ (* i5 (- 1)) it524) 0))
(assert (= (+ (* i6 (- 1)) it525) 0))
(assert (= (+ (* i7 (- 1)) it526) 0))
(assert (and (<= (+ it525 (- 5)) 0)
     (<= (+ (* it525 (- 1)) (- 5)) 0)
     (> it522 0)
     (= (+ it520 (- 2)) 0)))
(assert (= (+ it783 (- 3)) 0))
(assert (= (+ it784 (* it521 (- 1)) (- 2)) 0))
(assert (= (+ it785 (* it522 (- 1))) 0))
(assert (= (+ (* it522 (- 1)) it786) 0))
(assert (= (+ it787 (* it526 (- 1))) 0))
(assert (= (+ it788 (* it525 (- 1))) 0))
(assert (= (+ it789 (* it526 (- 1))) 0))
(assert (let ((a!1 (< (+ (+ 0 (* it787 (- 1))) (exp it786 2) (exp it788 5)) (+ 0 0))))
  (and (> it786 0) a!1 (= (+ it783 (- 3)) 0))))
(assert (= (+ it795 (- 3)) 0))
(assert (= (+ (* it784 (- 1)) it796 (- 2)) 0))
(assert (= (+ it797 (* it785 (- 1))) 0))
(assert (= (+ it798 (* it786 2)) 0))
(assert (= (+ (+ 0 (* it787 (- 3))) (* (exp it788 3) (+ 0 2)) (+ 0 it799))
   (+ 0 0)))
(assert (= (+ it800 (* it788 (- 1))) 0))
(assert (= (+ it801 (* it789 (- 1))) 0))
(assert (let ((a!1 (> (+ (* (exp it800 5) (+ 0 (- 1)))
                 (* (exp it800 3) (+ 0 (- 8)))
                 (+ 0 (* it799 9))
                 (* (exp it798 2) (+ 0 (- 16))))
              (+ 0 0)))
      (a!2 (* (* (+ 0 it799) (exp 81 (+ it452 (- 1)))) (+ 0 3)))
      (a!3 (* (* (exp it800 3) (exp 81 (+ it452 (- 1)))) (+ 0 (- 3))))
      (a!4 (* (exp (exp 16 (+ it452 (- 1))) (+ 0 2)) (exp it798 2)))
      (a!6 (* (* (+ 0 it799) (exp 81 (+ it452 (- 1)))) (+ 0 27)))
      (a!7 (* (* (exp it800 3) (exp 81 (+ it452 (- 1)))) (+ 0 (- 27))))
      (a!9 (> (+ (* (exp it800 5) (+ 0 (- 1)))
                 (* (exp it800 3) (+ 0 (- 2)))
                 (+ 0 (* it799 3))
                 (* (exp it798 2) (+ 0 (- 4))))
              (+ 0 0)))
      (a!10 (> (+ (* (exp it800 5) (+ 0 (- 1)))
                  (+ 0 it799)
                  (* (exp it798 2) (+ 0 (- 1))))
               (+ 0 0)))
      (a!11 (* (* (+ 0 it799) (exp 81 (+ it452 (- 1)))) (+ 0 9)))
      (a!12 (* (* (exp it800 3) (exp 81 (+ it452 (- 1)))) (+ 0 (- 9))))
      (a!14 (* (* (exp it800 3) (exp 81 (+ it452 (- 1)))) (+ 0 (- 1)))))
(let ((a!5 (> (+ a!2
                 a!3
                 (* (exp it800 5) (+ 0 (- 1)))
                 (exp it800 3)
                 (* a!4 (+ 0 (- 4))))
              (+ 0 0)))
      (a!8 (> (+ a!6
                 a!7
                 (* (exp it800 5) (+ 0 (- 1)))
                 (exp it800 3)
                 (* a!4 (+ 0 (- 64))))
              (+ 0 0)))
      (a!13 (> (+ a!11
                  a!12
                  (* (exp it800 5) (+ 0 (- 1)))
                  (exp it800 3)
                  (* a!4 (+ 0 (- 16))))
               (+ 0 0)))
      (a!15 (+ (* (+ 0 it799) (exp 81 (+ it452 (- 1))))
               a!14
               (* (exp it800 5) (+ 0 (- 1)))
               (exp it800 3)
               (* a!4 (+ 0 (- 1))))))
  (and a!1
       (> (* it798 8) 0)
       a!5
       (> it798 0)
       (> (* it798 2) 0)
       a!8
       a!9
       a!10
       (>= (+ it452 (- 1)) 0)
       a!13
       (> (* it798 4) 0)
       (>= (+ (* it795 (- 1)) 3) 0)
       (>= (+ it795 (- 3)) 0)
       (> a!15 (+ 0 0))))))
(check-sat)
